dates = {'2022-03-01','2022-03-02','2022-03-03','2022-03-04','2022-03-05','2022-03-06','2022-03-07','2022-03-08','2022-03-09','2022-03-10','2022-03-11','2022-03-12','2022-03-13','2022-03-14','2022-03-15','2022-03-16','2022-03-17','2022-03-18','2022-03-19','2022-03-20','2022-03-21'};

daysOfWeek = [Tuesday,Wednesday,Thursday,Friday,Saturday,Sunday,Monday,Tuesday,Wednesday,Thursday,Friday,Saturday,Sunday,Monday,Tuesday,Wednesday,Thursday,Friday,Saturday,Sunday,Monday];

% For this week, how many people will be here.
numPeople = [139,136,125,125,125,125,117,122,121,109,109,109,109,98,98,98,89,89
,89,89,89];

% Physical workers need 50 to 100 % more nutrients per day.
numPhysicalWorkers = [42.0,42.0,39.0,33.5,33.5,33.5,33.5,32.0,32.0,31.0,28.0,28.0,28.0,28.0
,28.0,28.0,28.0,21.0,21.0,21.0,21.0];

% Males need +25% more nutrients per day.
numMen = [112,112,109,100,100,100,100,100,100,99,90,90,90,90,80,80,80,75
,75,75,75];

% Num people who do not eat categories. contains = {none, meat, milk, gluten, egg, nut, seed, sugars}
numRefusals = [| 0,0,0,0,0,8,4,0 | 0,1,4,0,0,5,0,6 | 0,0,4,0,0,0,0,0 | 0,0,4,0,0,0,0,0 | 0,0,4,0,0,0,0,0 | 0,0,4,0,0,0,0,0 | 0,7,2,0,9,4,4,6 | 0,4,4,12,0,0,0,0 | 0,2,0,0,0,1,0,3 | 0,0,0,5,8,0,5,0 | 0,0,0,5,8,0,5,0 | 0,0,0,5,8,0,5,0 | 0,0,0,5,8,0,5,0 | 0,5,2,0,3,1,0,9 | 0,5,2,0,3,1,0,9 | 0,5,2,0,3,1,0,9 | 0,2,1,0,0,0,0,0 | 0,2,1,0,0,0,0,0 | 0,2,1,0,0,0,0,0 | 0,2,1,0,0,0,0,0 | 0,2,1,0,0,0,0,0 |];

